(set-logic ALL)
(set-option :produce-models true)
(define-fun-rec str.toLower ((x String)) String
  (ite (= x "")
      ""
      (let ((Head (str.at x 0)))
        (str.++ 
          (ite (and (<= 65 (str.to_code Head)) 
                     (<= (str.to_code Head) 90))
               (str.from_code (+ (str.to_code Head) 32))
               Head)
          (str.toLower (str.substr x 1 (- (str.len x) 1)))))))
(declare-fun sym205 () String)
(declare-fun sym547 () String)
(declare-fun sym748 () String)
(declare-fun sym161 () String)

(assert (not (= "" sym161 )))
(assert (not (= "" "y" )))
(assert (not (= "" "q" )))
(assert (= (str.toLower (str.substr sym547  0 1))"l" ))
(assert (not (= "" sym205 )))
(assert (not (= (str.toLower (str.substr sym547  0 1))"r" )))
(assert (not (= (str.toLower (str.substr sym547  0 1))"g" )))
(assert (not (= "" (str.toLower (str.substr sym205  0 1)))))
(assert (not (= (str.toLower (str.substr sym748  0 1))"q" )))
(assert (not (= (str.toLower (str.substr sym547  0 1))"q" )))
(assert (= "" "" ))
(assert (not (= (str.toLower (str.substr sym748  0 1))"g" )))
(assert (not (= "" sym547 )))
(assert (not (= (str.toLower (str.substr sym547  0 1))"p" )))
(assert (not (= "" "y" )))
(assert (not (= (str.toLower (str.substr sym547  0 1))"k" )))
(assert (not (= "y" "n" )))
(assert (= "y" "y" ))
(assert (not (= (str.toLower (str.substr sym748  0 1))"r" )))
(assert (not (= (str.toLower (str.substr sym748  0 1))"k" )))
(assert (= (str.toLower (str.substr sym205  0 1))"y" ))
(assert (not (= "" sym748 )))
(assert (= (str.toLower (str.substr sym748  0 1))"l" ))
(assert (not (= (str.toLower (str.substr sym748  0 1))"p" )))
(check-sat)
(get-model)
(exit)
